(declare-const X String)
; \b(0?[1-9]|1[0-2])(\-)(0?[1-9]|1[0-9]|2[0-9]|3[0-1])(\-)(0[0-8])\b
(assert (str.in_re X (re.++ (re.union (re.++ (re.opt (str.to_re "0")) (re.range "1" "9")) (re.++ (str.to_re "1") (re.range "0" "2"))) (str.to_re "-") (re.union (re.++ (re.opt (str.to_re "0")) (re.range "1" "9")) (re.++ (str.to_re "1") (re.range "0" "9")) (re.++ (str.to_re "2") (re.range "0" "9")) (re.++ (str.to_re "3") (re.range "0" "1"))) (str.to_re "-\u{a}0") (re.range "0" "8"))))
; /\x2ewvx([\?\x5c\x2f]|$)/smiU
(assert (str.in_re X (re.++ (str.to_re "/.wvx") (re.union (str.to_re "?") (str.to_re "\u{5c}") (str.to_re "/")) (str.to_re "/smiU\u{a}"))))
; /User-Agent\x3a\sMSIE.*\x3b\sNT.*\x3b\sAV.*\x3b\sOV.*\x3b\sNA.*VR\x28PH5.0\sW20130912/H
(assert (not (str.in_re X (re.++ (str.to_re "/User-Agent:") (re.union (str.to_re " ") (str.to_re "\u{9}") (str.to_re "\u{a}") (str.to_re "\u{c}") (str.to_re "\u{d}")) (str.to_re "MSIE") (re.* re.allchar) (str.to_re ";") (re.union (str.to_re " ") (str.to_re "\u{9}") (str.to_re "\u{a}") (str.to_re "\u{c}") (str.to_re "\u{d}")) (str.to_re "NT") (re.* re.allchar) (str.to_re ";") (re.union (str.to_re " ") (str.to_re "\u{9}") (str.to_re "\u{a}") (str.to_re "\u{c}") (str.to_re "\u{d}")) (str.to_re "AV") (re.* re.allchar) (str.to_re ";") (re.union (str.to_re " ") (str.to_re "\u{9}") (str.to_re "\u{a}") (str.to_re "\u{c}") (str.to_re "\u{d}")) (str.to_re "OV") (re.* re.allchar) (str.to_re ";") (re.union (str.to_re " ") (str.to_re "\u{9}") (str.to_re "\u{a}") (str.to_re "\u{c}") (str.to_re "\u{d}")) (str.to_re "NA") (re.* re.allchar) (str.to_re "VR(PH5") re.allchar (str.to_re "0") (re.union (str.to_re " ") (str.to_re "\u{9}") (str.to_re "\u{a}") (str.to_re "\u{c}") (str.to_re "\u{d}")) (str.to_re "W20130912/H\u{a}")))))
; /filename=[^\n]*\x2ewps/i
(assert (str.in_re X (re.++ (str.to_re "/filename=") (re.* (re.comp (str.to_re "\u{a}"))) (str.to_re ".wps/i\u{a}"))))
(check-sat)
